c Reduced graph for queen10_10g generated by Cyril Grelier
p edge 100 1470
e 1 3
e 1 4
e 1 7
e 1 8
e 1 11
e 1 12
e 1 20
e 1 22
e 1 23
e 1 24
e 1 35
e 1 36
e 1 41
e 1 42
e 1 43
e 1 46
e 1 51
e 1 53
e 1 55
e 1 59
e 1 60
e 1 62
e 1 64
e 1 66
e 1 68
e 1 74
e 1 79
e 1 82
e 1 85
e 1 87
e 1 90
e 1 95
e 1 97
e 2 6
e 2 10
e 2 12
e 2 14
e 2 15
e 2 18
e 2 20
e 2 21
e 2 22
e 2 25
e 2 26
e 2 31
e 2 42
e 2 43
e 2 44
e 2 47
e 2 48
e 2 58
e 2 60
e 2 61
e 2 62
e 2 67
e 2 69
e 2 73
e 2 74
e 2 78
e 2 80
e 2 82
e 2 84
e 2 85
e 2 88
e 2 89
e 2 100
e 3 4
e 3 5
e 3 11
e 3 14
e 3 16
e 3 21
e 3 25
e 3 35
e 3 36
e 3 42
e 3 43
e 3 44
e 3 49
e 3 50
e 3 52
e 3 55
e 3 57
e 3 58
e 3 59
e 3 60
e 3 63
e 3 68
e 3 72
e 3 78
e 3 81
e 3 82
e 3 83
e 3 84
e 3 85
e 3 86
e 3 91
e 3 92
e 4 5
e 4 6
e 4 9
e 4 10
e 4 11
e 4 13
e 4 19
e 4 20
e 4 23
e 4 29
e 4 30
e 4 32
e 4 35
e 4 37
e 4 39
e 4 45
e 4 46
e 4 55
e 4 59
e 4 60
e 4 62
e 4 71
e 4 80
e 4 81
e 4 82
e 4 83
e 4 84
e 4 85
e 4 94
e 5 6
e 5 7
e 5 9
e 5 10
e 5 13
e 5 15
e 5 18
e 5 23
e 5 24
e 5 25
e 5 29
e 5 38
e 5 43
e 5 45
e 5 52
e 5 54
e 5 57
e 5 58
e 5 60
e 5 61
e 5 63
e 5 72
e 5 78
e 5 83
e 5 84
e 5 86
e 5 87
e 5 91
e 5 94
e 6 7
e 6 10
e 6 13
e 6 14
e 6 21
e 6 23
e 6 28
e 6 29
e 6 31
e 6 33
e 6 42
e 6 43
e 6 44
e 6 45
e 6 48
e 6 50
e 6 54
e 6 59
e 6 74
e 6 75
e 6 77
e 6 78
e 6 80
e 6 84
e 6 88
e 6 89
e 6 94
e 6 96
e 7 9
e 7 12
e 7 15
e 7 18
e 7 21
e 7 22
e 7 24
e 7 25
e 7 28
e 7 33
e 7 38
e 7 43
e 7 46
e 7 59
e 7 61
e 7 64
e 7 65
e 7 68
e 7 75
e 7 76
e 7 78
e 7 79
e 7 83
e 7 85
e 7 87
e 7 92
e 7 95
e 7 96
e 8 11
e 8 13
e 8 22
e 8 24
e 8 26
e 8 27
e 8 30
e 8 32
e 8 33
e 8 36
e 8 38
e 8 41
e 8 48
e 8 49
e 8 54
e 8 56
e 8 62
e 8 65
e 8 66
e 8 67
e 8 74
e 8 78
e 8 79
e 8 80
e 8 81
e 8 84
e 8 85
e 8 86
e 8 87
e 8 98
e 9 15
e 9 17
e 9 20
e 9 24
e 9 25
e 9 28
e 9 29
e 9 30
e 9 31
e 9 32
e 9 35
e 9 36
e 9 38
e 9 39
e 9 46
e 9 50
e 9 51
e 9 60
e 9 61
e 9 63
e 9 69
e 9 71
e 9 80
e 9 81
e 9 83
e 9 87
e 10 12
e 10 13
e 10 14
e 10 16
e 10 22
e 10 23
e 10 28
e 10 29
e 10 32
e 10 44
e 10 45
e 10 49
e 10 51
e 10 58
e 10 61
e 10 69
e 10 84
e 10 85
e 10 88
e 10 91
e 10 93
e 10 94
e 10 96
e 10 99
e 10 100
e 11 13
e 11 19
e 11 24
e 11 26
e 11 34
e 11 35
e 11 38
e 11 39
e 11 49
e 11 55
e 11 59
e 11 60
e 11 61
e 11 64
e 11 65
e 11 66
e 11 75
e 11 79
e 11 80
e 11 82
e 11 85
e 11 89
e 11 90
e 11 91
e 11 98
e 12 15
e 12 21
e 12 22
e 12 32
e 12 43
e 12 46
e 12 47
e 12 49
e 12 51
e 12 60
e 12 64
e 12 67
e 12 68
e 12 76
e 12 77
e 12 79
e 12 84
e 12 86
e 12 88
e 12 89
e 12 91
e 12 93
e 12 95
e 12 96
e 12 99
e 13 16
e 13 23
e 13 26
e 13 29
e 13 38
e 13 39
e 13 45
e 13 49
e 13 51
e 13 53
e 13 57
e 13 67
e 13 69
e 13 70
e 13 73
e 13 77
e 13 79
e 13 80
e 13 84
e 13 94
e 13 95
e 14 15
e 14 16
e 14 25
e 14 28
e 14 31
e 14 35
e 14 37
e 14 42
e 14 43
e 14 48
e 14 50
e 14 53
e 14 54
e 14 68
e 14 70
e 14 71
e 14 72
e 14 74
e 14 80
e 14 84
e 14 89
e 14 92
e 14 96
e 15 21
e 15 24
e 15 25
e 15 35
e 15 37
e 15 38
e 15 47
e 15 53
e 15 54
e 15 60
e 15 61
e 15 63
e 15 67
e 15 70
e 15 71
e 15 72
e 15 83
e 15 84
e 15 87
e 15 94
e 15 96
e 16 21
e 16 27
e 16 28
e 16 36
e 16 39
e 16 42
e 16 43
e 16 44
e 16 47
e 16 49
e 16 52
e 16 53
e 16 55
e 16 57
e 16 65
e 16 67
e 16 69
e 16 73
e 16 77
e 16 81
e 16 83
e 16 88
e 16 95
e 17 18
e 17 19
e 17 28
e 17 29
e 17 30
e 17 31
e 17 34
e 17 36
e 17 41
e 17 48
e 17 50
e 17 51
e 17 56
e 17 60
e 17 63
e 17 68
e 17 69
e 17 71
e 17 72
e 17 75
e 17 79
e 17 82
e 17 83
e 17 94
e 17 97
e 17 99
e 18 19
e 18 20
e 18 25
e 18 26
e 18 36
e 18 52
e 18 54
e 18 56
e 18 60
e 18 62
e 18 65
e 18 68
e 18 72
e 18 73
e 18 75
e 18 76
e 18 78
e 18 82
e 18 85
e 18 88
e 18 92
e 18 94
e 18 97
e 19 24
e 19 30
e 19 36
e 19 37
e 19 41
e 19 47
e 19 56
e 19 58
e 19 59
e 19 62
e 19 64
e 19 68
e 19 72
e 19 75
e 19 77
e 19 80
e 19 83
e 19 87
e 19 92
e 19 93
e 19 94
e 19 97
e 19 98
e 20 21
e 20 23
e 20 24
e 20 25
e 20 26
e 20 27
e 20 32
e 20 37
e 20 39
e 20 41
e 20 42
e 20 45
e 20 46
e 20 50
e 20 51
e 20 53
e 20 58
e 20 62
e 20 66
e 20 71
e 20 73
e 20 76
e 20 78
e 20 79
e 20 80
e 20 81
e 20 82
e 20 88
e 20 90
e 20 97
e 21 27
e 21 28
e 21 33
e 21 36
e 21 37
e 21 42
e 21 44
e 21 45
e 21 47
e 21 49
e 21 50
e 21 52
e 21 58
e 21 59
e 21 60
e 21 66
e 21 67
e 21 75
e 21 76
e 21 78
e 21 79
e 21 81
e 21 83
e 21 84
e 21 96
e 22 25
e 22 27
e 22 30
e 22 40
e 22 41
e 22 43
e 22 44
e 22 46
e 22 52
e 22 54
e 22 58
e 22 59
e 22 61
e 22 64
e 22 65
e 22 68
e 22 69
e 22 78
e 22 79
e 22 81
e 22 84
e 22 85
e 22 89
e 22 94
e 22 95
e 22 98
e 22 100
e 23 24
e 23 26
e 23 28
e 23 29
e 23 31
e 23 34
e 23 37
e 23 40
e 23 41
e 23 42
e 23 44
e 23 45
e 23 46
e 23 47
e 23 49
e 23 51
e 23 53
e 23 70
e 23 73
e 23 84
e 23 86
e 23 90
e 23 94
e 23 97
e 24 25
e 24 27
e 24 32
e 24 33
e 24 38
e 24 41
e 24 42
e 24 48
e 24 51
e 24 53
e 24 56
e 24 61
e 24 64
e 24 67
e 24 83
e 24 85
e 24 86
e 24 87
e 24 90
e 24 97
e 24 98
e 25 26
e 25 27
e 25 38
e 25 40
e 25 50
e 25 52
e 25 59
e 25 61
e 25 62
e 25 68
e 25 73
e 25 78
e 25 82
e 25 83
e 25 84
e 25 87
e 25 88
e 25 89
e 25 92
e 25 94
e 26 28
e 26 30
e 26 34
e 26 35
e 26 38
e 26 40
e 26 42
e 26 44
e 26 45
e 26 46
e 26 47
e 26 49
e 26 62
e 26 70
e 26 73
e 26 78
e 26 79
e 26 80
e 26 82
e 26 86
e 26 88
e 26 93
e 26 95
e 27 32
e 27 33
e 27 37
e 27 40
e 27 43
e 27 45
e 27 47
e 27 48
e 27 50
e 27 52
e 27 55
e 27 56
e 27 58
e 27 59
e 27 65
e 27 66
e 27 67
e 27 76
e 27 79
e 27 85
e 27 86
e 27 88
e 27 89
e 27 94
e 28 30
e 28 31
e 28 33
e 28 34
e 28 40
e 28 44
e 28 46
e 28 47
e 28 50
e 28 51
e 28 59
e 28 60
e 28 63
e 28 69
e 28 70
e 28 75
e 28 78
e 28 86
e 28 96
e 29 33
e 29 34
e 29 35
e 29 36
e 29 41
e 29 45
e 29 48
e 29 52
e 29 62
e 29 63
e 29 64
e 29 71
e 29 79
e 29 82
e 29 83
e 29 84
e 29 90
e 29 92
e 29 94
e 29 99
e 29 100
e 30 31
e 30 35
e 30 37
e 30 41
e 30 42
e 30 45
e 30 50
e 30 51
e 30 54
e 30 60
e 30 62
e 30 63
e 30 65
e 30 69
e 30 78
e 30 81
e 30 83
e 30 84
e 30 93
e 30 95
e 30 98
e 31 37
e 31 42
e 31 43
e 31 45
e 31 48
e 31 49
e 31 50
e 31 51
e 31 56
e 31 60
e 31 63
e 31 64
e 31 69
e 31 70
e 31 73
e 31 74
e 31 80
e 31 81
e 31 82
e 31 87
e 31 89
e 32 33
e 32 34
e 32 39
e 32 46
e 32 48
e 32 49
e 32 51
e 32 56
e 32 67
e 32 71
e 32 74
e 32 80
e 32 81
e 32 85
e 32 86
e 32 88
e 32 91
e 32 93
e 32 95
e 32 96
e 32 99
e 33 48
e 33 52
e 33 55
e 33 56
e 33 59
e 33 61
e 33 62
e 33 63
e 33 64
e 33 67
e 33 68
e 33 71
e 33 75
e 33 78
e 33 85
e 33 86
e 33 90
e 33 92
e 33 96
e 33 100
e 34 39
e 34 40
e 34 41
e 34 44
e 34 46
e 34 47
e 34 48
e 34 61
e 34 65
e 34 66
e 34 70
e 34 74
e 34 75
e 34 79
e 34 82
e 34 83
e 34 86
e 34 89
e 34 90
e 34 91
e 34 95
e 34 99
e 35 36
e 35 37
e 35 42
e 35 45
e 35 53
e 35 54
e 35 55
e 35 59
e 35 60
e 35 70
e 35 71
e 35 72
e 35 82
e 35 85
e 35 93
e 35 95
e 35 96
e 36 42
e 36 44
e 36 49
e 36 52
e 36 56
e 36 62
e 36 66
e 36 68
e 36 72
e 36 74
e 36 75
e 36 81
e 36 83
e 36 87
e 36 94
e 36 97
e 37 45
e 37 49
e 37 50
e 37 53
e 37 54
e 37 58
e 37 62
e 37 66
e 37 70
e 37 71
e 37 72
e 37 73
e 37 76
e 37 79
e 37 83
e 37 96
e 38 40
e 38 49
e 38 55
e 38 56
e 38 57
e 38 61
e 38 74
e 38 76
e 38 79
e 38 80
e 38 83
e 38 87
e 38 90
e 38 97
e 38 98
e 38 99
e 38 100
e 39 46
e 39 53
e 39 57
e 39 61
e 39 65
e 39 66
e 39 67
e 39 69
e 39 71
e 39 73
e 39 75
e 39 77
e 39 80
e 39 81
e 39 89
e 39 90
e 39 91
e 39 95
e 39 99
e 40 44
e 40 46
e 40 47
e 40 52
e 40 55
e 40 57
e 40 59
e 40 67
e 40 70
e 40 74
e 40 76
e 40 86
e 40 89
e 40 91
e 40 94
e 40 97
e 40 98
e 40 99
e 40 100
e 41 42
e 41 47
e 41 48
e 41 51
e 41 53
e 41 54
e 41 58
e 41 59
e 41 65
e 41 77
e 41 78
e 41 79
e 41 80
e 41 81
e 41 82
e 41 83
e 41 84
e 41 87
e 41 90
e 41 92
e 41 93
e 41 97
e 41 98
e 41 99
e 42 43
e 42 44
e 42 45
e 42 48
e 42 49
e 42 51
e 42 52
e 42 53
e 42 74
e 42 80
e 42 81
e 42 83
e 42 89
e 42 90
e 42 93
e 42 95
e 42 97
e 43 46
e 43 47
e 43 48
e 43 55
e 43 57
e 43 58
e 43 63
e 43 64
e 43 65
e 43 68
e 43 72
e 43 74
e 43 78
e 43 79
e 43 80
e 43 86
e 43 88
e 43 89
e 43 91
e 43 95
e 44 46
e 44 47
e 44 49
e 44 50
e 44 52
e 44 54
e 44 58
e 44 61
e 44 69
e 44 70
e 44 77
e 44 81
e 44 83
e 44 85
e 44 86
e 44 88
e 44 100
e 45 50
e 45 56
e 45 58
e 45 64
e 45 66
e 45 70
e 45 76
e 45 79
e 45 81
e 45 82
e 45 84
e 45 87
e 45 93
e 45 94
e 45 95
e 46 47
e 46 48
e 46 64
e 46 66
e 46 68
e 46 70
e 46 71
e 46 73
e 46 79
e 46 80
e 46 81
e 46 86
e 46 93
e 46 95
e 46 98
e 47 55
e 47 58
e 47 59
e 47 60
e 47 65
e 47 67
e 47 70
e 47 77
e 47 80
e 47 84
e 47 86
e 47 87
e 47 88
e 47 92
e 47 93
e 48 56
e 48 66
e 48 67
e 48 73
e 48 74
e 48 79
e 48 80
e 48 82
e 48 83
e 48 85
e 48 86
e 48 89
e 48 93
e 48 98
e 48 99
e 49 51
e 49 52
e 49 73
e 49 79
e 49 80
e 49 81
e 49 83
e 49 88
e 49 91
e 49 93
e 49 96
e 49 99
e 50 51
e 50 54
e 50 58
e 50 60
e 50 63
e 50 66
e 50 68
e 50 69
e 50 76
e 50 77
e 50 79
e 50 84
e 50 88
e 50 92
e 51 53
e 51 60
e 51 63
e 51 69
e 51 70
e 51 88
e 51 90
e 51 91
e 51 93
e 51 96
e 51 97
e 51 99
e 52 54
e 52 59
e 52 60
e 52 62
e 52 63
e 52 64
e 52 71
e 52 81
e 52 83
e 52 89
e 52 90
e 52 92
e 52 94
e 52 100
e 53 54
e 53 57
e 53 67
e 53 69
e 53 70
e 53 71
e 53 72
e 53 73
e 53 77
e 53 90
e 53 95
e 53 96
e 53 97
e 54 60
e 54 65
e 54 70
e 54 71
e 54 72
e 54 77
e 54 78
e 54 81
e 54 84
e 54 88
e 54 96
e 54 98
e 55 57
e 55 59
e 55 60
e 55 61
e 55 65
e 55 68
e 55 74
e 55 76
e 55 82
e 55 85
e 55 88
e 55 97
e 55 98
e 55 99
e 55 100
e 56 64
e 56 67
e 56 68
e 56 70
e 56 72
e 56 75
e 56 81
e 56 82
e 56 85
e 56 86
e 56 87
e 56 90
e 56 94
e 56 97
e 57 58
e 57 63
e 57 67
e 57 69
e 57 72
e 57 73
e 57 74
e 57 76
e 57 77
e 57 78
e 57 86
e 57 91
e 57 95
e 57 97
e 57 98
e 57 99
e 57 100
e 58 59
e 58 61
e 58 63
e 58 66
e 58 69
e 58 72
e 58 76
e 58 77
e 58 78
e 58 79
e 58 80
e 58 85
e 58 86
e 58 87
e 58 91
e 58 92
e 58 93
e 58 100
e 59 60
e 59 75
e 59 77
e 59 78
e 59 80
e 59 82
e 59 85
e 59 87
e 59 89
e 59 92
e 59 93
e 59 94
e 59 96
e 60 63
e 60 67
e 60 69
e 60 82
e 60 84
e 60 85
e 61 65
e 61 66
e 61 68
e 61 69
e 61 75
e 61 83
e 61 85
e 61 87
e 61 89
e 61 90
e 61 91
e 61 100
e 62 63
e 62 64
e 62 66
e 62 71
e 62 73
e 62 74
e 62 78
e 62 82
e 62 83
e 62 87
e 62 88
e 62 90
e 62 92
e 62 100
e 63 64
e 63 69
e 63 71
e 63 72
e 63 78
e 63 86
e 63 90
e 63 91
e 63 92
e 63 94
e 63 100
e 64 68
e 64 70
e 64 71
e 64 79
e 64 81
e 64 82
e 64 87
e 64 90
e 64 92
e 64 95
e 64 98
e 64 100
e 65 66
e 65 75
e 65 76
e 65 78
e 65 81
e 65 84
e 65 85
e 65 88
e 65 89
e 65 90
e 65 91
e 65 92
e 65 98
e 66 73
e 66 74
e 66 75
e 66 76
e 66 79
e 66 87
e 66 89
e 66 90
e 66 91
e 66 93
e 66 98
e 67 69
e 67 73
e 67 77
e 67 84
e 67 85
e 67 86
e 67 91
e 67 95
e 68 72
e 68 75
e 68 79
e 68 84
e 68 92
e 68 94
e 68 95
e 68 97
e 69 73
e 69 77
e 69 85
e 69 95
e 69 96
e 69 100
e 70 71
e 70 72
e 70 81
e 70 82
e 70 86
e 70 87
e 70 96
e 71 72
e 71 80
e 71 81
e 71 90
e 71 92
e 71 96
e 71 100
e 72 75
e 72 78
e 72 86
e 72 91
e 72 94
e 72 96
e 72 97
e 73 77
e 73 78
e 73 82
e 73 88
e 73 93
e 73 95
e 73 98
e 74 76
e 74 80
e 74 87
e 74 89
e 74 95
e 74 97
e 74 98
e 74 99
e 74 100
e 75 78
e 75 89
e 75 90
e 75 91
e 75 94
e 75 96
e 75 97
e 75 100
e 76 77
e 76 79
e 76 85
e 76 86
e 76 89
e 76 92
e 76 97
e 76 98
e 76 99
e 76 100
e 77 80
e 77 86
e 77 87
e 77 88
e 77 89
e 77 92
e 77 93
e 77 95
e 78 81
e 78 82
e 78 84
e 78 86
e 78 88
e 78 91
e 78 96
e 78 98
e 79 80
e 79 82
e 79 83
e 79 95
e 79 99
e 80 81
e 80 87
e 80 89
e 80 92
e 80 93
e 81 82
e 81 83
e 81 84
e 81 87
e 81 98
e 82 83
e 82 85
e 82 87
e 82 88
e 82 99
e 83 87
e 83 99
e 84 92
e 84 94
e 84 98
e 85 86
e 85 92
e 85 100
e 86 89
e 86 91
e 87 92
e 87 93
e 88 91
e 88 93
e 88 96
e 88 99
e 89 90
e 89 91
e 89 94
e 90 91
e 90 92
e 90 97
e 90 100
e 91 93
e 91 96
e 91 99
e 92 93
e 92 100
e 93 95
e 93 96
e 93 98
e 93 99
e 94 97
e 96 99
e 97 98
e 97 99
e 97 100
e 98 99
e 98 100
e 99 100
